benchmarks_vrp/CMT5/tsp_classic/CMT5_8.vrp
NAME: CMT5_8
TYPE: CVRP
COMMENT: 1291.29 - Cluster Nr.8
DIMENSION: 12
CAPACITY: 200
EDGE_WEIGHT_TYPE: EUC_2D
NODE_COORD_TYPE: TWOD_COORDS
NODE_COORD_SECTION: 
12 22 53
9 35 35
1 21 48
7 8 52
3 2 48
4 15 60
6 20 50
11 9 56
5 16 57
10 15 47
8 13 52
2 8 56
DEPOT_SECTION: 
9
-1
DEMAND_SECTION: 
4 17
11 13
8 36
10 16
3 1
12 28
5 16
7 10
6 5
1 17
2 27
9 0
EOF
