benchmarks_vrp/CMT5/tsp_classic/CMT5_8.tour
NAME: CMT5_8 solution
TYPE: TOUR
TOUR_SECTION:
9 1 6 12 5 4 11 2 3 7 8 10 -1
-1
EOF